120
1000
200
198
198
198
198
198
197
195
195
195
194
194
194
194
194
193
193
193
192
192
191
191
191
191
191
190
190
190
190
190
189
189
189
188
188
188
188
188
188
187
187
186
186
186
185
184
184
183
183
183
182
182
182
182
181
180
180
179
179
178
178
177
177
176
175
175
175
175
173
173
173
171
171
171
171
170
170
169
169
168
168
167
167
167
167
167
167
167
166
166
166
165
163
163
162
161
160
159
159
158
158
158
157
157
157
156
156
156
155
155
154
153
153
152
152
151
150
150
150
150
